7342 10658 798
12574 6426 1004
10016 7984 1147
11466 7534 1119
11219 8781 1052
8354 10646 868
12387 6613 1057
9590 8410 1142
12563 7437 949
10175 9825 973
12412 7588 977
12082 7918 1021
10289 9711 1035
12644 7356 933
9278 9722 1117
10740 8260 1134
12091 6909 1090
12819 5181 876
12304 7696 993
8468 10532 930
11713 8287 1047
